10 6 25 43 37 
66 27 33 7 3 
































































































8 40 50 45 17 
63 49 48 65 68 
4 70 76 2 71 
56 5 41 53 34 
54 26 15 47 
20 18 14 67 

9 11 69 21 
42 44 13 36 
12 19 39 51 
23 46 74 64 
73 22 58 24 
62 16 72 32 75 
59 1 29 57 28 
35 0 55 30 
38 31 60 52 
61 
